69
125
100	4
99	3
98	2
97	2
96	4
95	2
94	1
93	1
92	4
91	6
90	3
89	1
88	3
87	2
86	1
85	4
84	2
83	1
82	1
80	4
79	4
78	6
77	1
76	1
75	3
74	1
73	4
72	3
71	4
70	1
69	4
68	3
67	4
66	5
65	3
64	2
63	5
62	6
61	1
60	6
59	1
58	2
57	1
56	4
55	3
54	2
53	7
52	5
48	3
47	3
46	2
45	1
44	5
43	1
42	3
40	1
39	1
38	1
37	5
36	2
35	5
34	3
33	4
31	5
30	1
29	1
28	3
26	3
25	4
